
;this file is automatically generated: Fri Oct 08 11:47:54 IST 2021

;declarations generated

(declare-fun Gender ( Int) Int)
(declare-fun oclExcludes ( Int Int) Bool)
(declare-fun rel_cb018ec5_ff38_4861_adad_ee4dbd071061_choose ( Int Int) Bool)
(declare-fun Cardinality ( Int) Int)
(declare-fun student_year ( Int) Int)
(declare-fun type_16d75fcc_d294_4a90_b207_16ca80d1fa28_Module ( Int) Bool)
(declare-fun oclSelect ( Int Bool) Int)
(declare-fun type_16d75fcc_d294_4a90_b207_16ca80d1fa28_Person ( Int) Bool)
(declare-fun obj_e8dbc44d_f199_49b4_ab9f_255a5044c5f4 ( Int) Int)
(declare-fun module_year ( Int) Int)
(declare-fun k93a99fbb_868f_4747_b57f_092a6f10e7d2 () Int)
(declare-fun type_16d75fcc_d294_4a90_b207_16ca80d1fa28_Child ( Int) Bool)
(declare-fun container_ ( Int) Int)
(declare-fun type_16d75fcc_d294_4a90_b207_16ca80d1fa28_Student ( Int) Bool)
(declare-fun oclIncludes ( Int Int) Bool)
(declare-fun k93141ca0_1666_4d30_a265_f07e2b974b47 () Int)
(declare-fun type_16d75fcc_d294_4a90_b207_16ca80d1fa28_University ( Int) Bool)
(declare-fun ObjAt ( Int Int) Int)
(declare-fun type_16d75fcc_d294_4a90_b207_16ca80d1fa28_Department ( Int) Bool)

;formula(s) generated
(assert (forall ((x Int)(y Int)) (=> (and ( rel_cb018ec5_ff38_4861_adad_ee4dbd071061_choose ( obj_e8dbc44d_f199_49b4_ab9f_255a5044c5f4 x )   ( obj_e8dbc44d_f199_49b4_ab9f_255a5044c5f4 y )  )  (and (and ( type_16d75fcc_d294_4a90_b207_16ca80d1fa28_Student x )  ( type_16d75fcc_d294_4a90_b207_16ca80d1fa28_Person x ) ) ( type_16d75fcc_d294_4a90_b207_16ca80d1fa28_Module y ) )) (or (or (or (= (* ( Cardinality ( container_ x )  )  0) (* ( Cardinality ( container_ y )  )  1)) (and (= (* ( Cardinality ( container_ y )  )  1) (* ( Cardinality ( container_ x )  )  k93141ca0_1666_4d30_a265_f07e2b974b47)) (>= k93141ca0_1666_4d30_a265_f07e2b974b47 0))) (= (* ( Cardinality ( container_ x )  )  0) (* ( Cardinality ( container_ y )  )  1))) (and (= (* ( Cardinality ( container_ y )  )  1) (* ( Cardinality ( container_ x )  )  k93a99fbb_868f_4747_b57f_092a6f10e7d2)) (>= k93a99fbb_868f_4747_b57f_092a6f10e7d2 0))))))
(assert (! (and (forall ((v Int)) (=> (and ( type_16d75fcc_d294_4a90_b207_16ca80d1fa28_Student v )  ( type_16d75fcc_d294_4a90_b207_16ca80d1fa28_Person v ) ) (>= ( student_year ( obj_e8dbc44d_f199_49b4_ab9f_255a5044c5f4 v )  )  1))) (forall ((v Int)) (=> (and ( type_16d75fcc_d294_4a90_b207_16ca80d1fa28_Student v )  ( type_16d75fcc_d294_4a90_b207_16ca80d1fa28_Person v ) ) (<= ( student_year ( obj_e8dbc44d_f199_49b4_ab9f_255a5044c5f4 v )  )  6)))):named l0))
(assert (! (and (exists ((s Int)) (and (and ( type_16d75fcc_d294_4a90_b207_16ca80d1fa28_Student s )  ( type_16d75fcc_d294_4a90_b207_16ca80d1fa28_Person s ) ) (= ( student_year ( obj_e8dbc44d_f199_49b4_ab9f_255a5044c5f4 s )  )  6))) (exists ((s Int)) (and (and ( type_16d75fcc_d294_4a90_b207_16ca80d1fa28_Student s )  ( type_16d75fcc_d294_4a90_b207_16ca80d1fa28_Person s ) ) (< ( student_year ( obj_e8dbc44d_f199_49b4_ab9f_255a5044c5f4 s )  )  6)))):named l1))
(assert (! (forall ((s1 Int)) (=> (and ( type_16d75fcc_d294_4a90_b207_16ca80d1fa28_Student s1 )  ( type_16d75fcc_d294_4a90_b207_16ca80d1fa28_Person s1 ) ) (forall ((m1 Int)) (=> (and ( type_16d75fcc_d294_4a90_b207_16ca80d1fa28_Module m1 )  ( rel_cb018ec5_ff38_4861_adad_ee4dbd071061_choose ( obj_e8dbc44d_f199_49b4_ab9f_255a5044c5f4 s1 )   ( obj_e8dbc44d_f199_49b4_ab9f_255a5044c5f4 m1 )  ) ) (= ( student_year ( obj_e8dbc44d_f199_49b4_ab9f_255a5044c5f4 s1 )  )  ( module_year ( obj_e8dbc44d_f199_49b4_ab9f_255a5044c5f4 m1 )  ) ))))):named l2))
(assert (! (and (forall ((v Int)) (=> ( type_16d75fcc_d294_4a90_b207_16ca80d1fa28_Module v )  (>= ( module_year ( obj_e8dbc44d_f199_49b4_ab9f_255a5044c5f4 v )  )  1))) (forall ((v Int)) (=> ( type_16d75fcc_d294_4a90_b207_16ca80d1fa28_Module v )  (<= ( module_year ( obj_e8dbc44d_f199_49b4_ab9f_255a5044c5f4 v )  )  5)))):named l3))
(assert (! (forall ((s Int)) (=> (and ( type_16d75fcc_d294_4a90_b207_16ca80d1fa28_Student s )  ( type_16d75fcc_d294_4a90_b207_16ca80d1fa28_Person s ) ) (exists ((v Int)) (and ( type_16d75fcc_d294_4a90_b207_16ca80d1fa28_Module v )  ( rel_cb018ec5_ff38_4861_adad_ee4dbd071061_choose ( obj_e8dbc44d_f199_49b4_ab9f_255a5044c5f4 s )   ( obj_e8dbc44d_f199_49b4_ab9f_255a5044c5f4 v )  ) )))):named l4))
(assert (! (exists ((o Int)) (and ( type_16d75fcc_d294_4a90_b207_16ca80d1fa28_Child ( obj_e8dbc44d_f199_49b4_ab9f_255a5044c5f4 o )  )  ( type_16d75fcc_d294_4a90_b207_16ca80d1fa28_Person ( obj_e8dbc44d_f199_49b4_ab9f_255a5044c5f4 o )  ) )):named c0))
(assert (! (exists ((o Int)) ( type_16d75fcc_d294_4a90_b207_16ca80d1fa28_Department ( obj_e8dbc44d_f199_49b4_ab9f_255a5044c5f4 o )  ) ):named c1))
(assert (! (exists ((o Int)) ( type_16d75fcc_d294_4a90_b207_16ca80d1fa28_Module ( obj_e8dbc44d_f199_49b4_ab9f_255a5044c5f4 o )  ) ):named c2))
(assert (! (exists ((o Int)) ( type_16d75fcc_d294_4a90_b207_16ca80d1fa28_Person ( obj_e8dbc44d_f199_49b4_ab9f_255a5044c5f4 o )  ) ):named c3))
(assert (! (exists ((o Int)) (and ( type_16d75fcc_d294_4a90_b207_16ca80d1fa28_Student ( obj_e8dbc44d_f199_49b4_ab9f_255a5044c5f4 o )  )  ( type_16d75fcc_d294_4a90_b207_16ca80d1fa28_Person ( obj_e8dbc44d_f199_49b4_ab9f_255a5044c5f4 o )  ) )):named c4))
(assert (! (exists ((o Int)) ( type_16d75fcc_d294_4a90_b207_16ca80d1fa28_University ( obj_e8dbc44d_f199_49b4_ab9f_255a5044c5f4 o )  ) ):named c5))

 ;end of formula 